% Lawrence 10x5 instance (Table 3, instance 4); also called (setf4) or (F4)
n_jobs = 10;
n_machines = 5;
machine = [|1, 3, 4, 5, 2
           |2, 4, 5, 3, 1
           |2, 1, 4, 5, 3
           |3, 5, 1, 4, 2
           |2, 4, 5, 1, 3
           |4, 3, 1, 5, 2
           |3, 2, 1, 4, 5
           |2, 4, 1, 5, 3
           |3, 5, 1, 2, 4
           |3, 5, 4, 2, 1|];
duration = [|12, 94, 92, 91, 7
            |19, 11, 66, 21, 87
            |14, 75, 13, 16, 20
            |95, 66, 7, 7, 77
            |45, 6, 89, 15, 34
            |77, 20, 76, 88, 53
            |74, 88, 52, 27, 9
            |88, 69, 62, 98, 52
            |61, 9, 62, 52, 90
            |54, 5, 59, 15, 88|];
deadline = [639, 472, 531, 600, 604, 435, 475, 436, 484, 576];
penalty = [76, 79, 33, 39, 90, 35, 71, 23, 73, 25];